p cnf 147 151
-1 6 7 8 9 10 11 12 13 14 15 16 17 18 39 40 57 58 80 111 112 -117 -119 -120 -121 -122 -123 -124 -125 -126 -127 -128 -129 -130 -131 -132 -133 -134 -135 -136 -137 -138 -139 -140 -141 -142 -143 -144 -145 -146 -147 0 
-1 6 7 8 9 10 11 12 13 14 15 16 17 18 39 40 57 58 80 111 113 -117 -119 -120 -121 -122 -123 -124 -125 -126 -127 -128 -129 -130 -131 -132 -133 -134 -135 -136 -137 -138 -139 -140 -141 -142 -143 -144 -145 -146 -147 0 
-1 6 7 8 9 10 11 12 13 14 15 16 17 18 39 40 57 58 80 111 114 -117 -119 -120 -121 -122 -123 -124 -125 -126 -127 -128 -129 -130 -131 -132 -133 -134 -135 -136 -137 -138 -139 -140 -141 -142 -143 -144 -145 -146 -147 0 
-2 22 113 -117 -119 -120 -121 -122 -123 -124 -125 -126 -127 -128 -129 -130 -131 -132 -133 -134 -135 -136 -137 -138 -139 -140 -141 -142 -143 -144 -145 -146 -147 0 
-3 115 -117 -119 -120 -121 -122 -123 -124 -125 -126 -127 -128 -129 -130 -131 -132 -133 -134 -135 -136 -137 -138 -139 -140 -141 -142 -143 -144 -145 -146 -147 0 
-4 21 25 38 41 45 47 51 52 59 60 61 62 63 64 68 87 91 93 97 98 101 105 110 116 -117 -119 -120 -121 -122 -123 -124 -125 -126 -127 -128 -129 -130 -131 -132 -133 -134 -135 -136 -137 -138 -139 -140 -141 -142 -143 -144 -145 -146 -147 0 
-5 49 72 112 -117 -119 -120 -121 -122 -123 -124 -125 -126 -127 -128 -129 -130 -131 -132 -133 -134 -135 -136 -137 -138 -139 -140 -141 -142 -143 -144 -145 -146 -147 0 
-6 1 7 8 9 10 11 12 13 14 15 16 17 18 39 40 57 58 80 111 113 -117 -119 -120 -121 -122 -123 -124 -125 -126 -127 -128 -129 -130 -131 -132 -133 -134 -135 -136 -137 -138 -139 -140 -141 -142 -143 -144 -145 -146 -147 0 
-7 1 6 8 9 10 11 12 13 14 15 16 17 18 39 40 57 58 80 111 113 -117 -119 -120 -121 -122 -123 -124 -125 -126 -127 -128 -129 -130 -131 -132 -133 -134 -135 -136 -137 -138 -139 -140 -141 -142 -143 -144 -145 -146 -147 0 
-8 1 6 7 9 10 11 12 13 14 15 16 17 18 39 40 57 58 80 111 113 -117 -119 -120 -121 -122 -123 -124 -125 -126 -127 -128 -129 -130 -131 -132 -133 -134 -135 -136 -137 -138 -139 -140 -141 -142 -143 -144 -145 -146 -147 0 
-9 1 6 7 8 10 11 12 13 14 15 16 17 18 39 40 57 58 80 111 113 -117 -119 -120 -121 -122 -123 -124 -125 -126 -127 -128 -129 -130 -131 -132 -133 -134 -135 -136 -137 -138 -139 -140 -141 -142 -143 -144 -145 -146 -147 0 
-10 1 6 7 8 9 11 12 13 14 15 16 17 18 39 40 57 58 80 111 113 -117 -119 -120 -121 -122 -123 -124 -125 -126 -127 -128 -129 -130 -131 -132 -133 -134 -135 -136 -137 -138 -139 -140 -141 -142 -143 -144 -145 -146 -147 0 
-11 1 6 7 8 9 10 12 13 14 15 16 17 18 39 40 57 58 80 111 113 -117 -119 -120 -121 -122 -123 -124 -125 -126 -127 -128 -129 -130 -131 -132 -133 -134 -135 -136 -137 -138 -139 -140 -141 -142 -143 -144 -145 -146 -147 0 
-12 1 6 7 8 9 10 11 13 14 15 16 17 18 39 40 57 58 80 111 113 -117 -119 -120 -121 -122 -123 -124 -125 -126 -127 -128 -129 -130 -131 -132 -133 -134 -135 -136 -137 -138 -139 -140 -141 -142 -143 -144 -145 -146 -147 0 
-13 1 6 7 8 9 10 11 12 14 15 16 17 18 39 40 57 58 80 111 113 -117 -119 -120 -121 -122 -123 -124 -125 -126 -127 -128 -129 -130 -131 -132 -133 -134 -135 -136 -137 -138 -139 -140 -141 -142 -143 -144 -145 -146 -147 0 
-7 1 6 8 9 10 11 12 13 14 15 16 17 18 39 40 57 58 80 111 115 -117 -119 -120 -121 -122 -123 -124 -125 -126 -127 -128 -129 -130 -131 -132 -133 -134 -135 -136 -137 -138 -139 -140 -141 -142 -143 -144 -145 -146 -147 0 
-14 1 6 7 8 9 10 11 12 13 15 16 17 18 39 40 57 58 80 111 113 -117 -119 -120 -121 -122 -123 -124 -125 -126 -127 -128 -129 -130 -131 -132 -133 -134 -135 -136 -137 -138 -139 -140 -141 -142 -143 -144 -145 -146 -147 0 
-15 1 6 7 8 9 10 11 12 13 14 16 17 18 39 40 57 58 80 111 115 -117 -119 -120 -121 -122 -123 -124 -125 -126 -127 -128 -129 -130 -131 -132 -133 -134 -135 -136 -137 -138 -139 -140 -141 -142 -143 -144 -145 -146 -147 0 
-12 1 6 7 8 9 10 11 13 14 15 16 17 18 39 40 57 58 80 111 115 -117 -119 -120 -121 -122 -123 -124 -125 -126 -127 -128 -129 -130 -131 -132 -133 -134 -135 -136 -137 -138 -139 -140 -141 -142 -143 -144 -145 -146 -147 0 
-16 1 6 7 8 9 10 11 12 13 14 15 17 18 39 40 57 58 80 111 113 -117 -119 -120 -121 -122 -123 -124 -125 -126 -127 -128 -129 -130 -131 -132 -133 -134 -135 -136 -137 -138 -139 -140 -141 -142 -143 -144 -145 -146 -147 0 
-17 1 6 7 8 9 10 11 12 13 14 15 16 18 39 40 57 58 80 111 115 -117 -119 -120 -121 -122 -123 -124 -125 -126 -127 -128 -129 -130 -131 -132 -133 -134 -135 -136 -137 -138 -139 -140 -141 -142 -143 -144 -145 -146 -147 0 
-10 1 6 7 8 9 11 12 13 14 15 16 17 18 39 40 57 58 80 111 112 -117 -119 -120 -121 -122 -123 -124 -125 -126 -127 -128 -129 -130 -131 -132 -133 -134 -135 -136 -137 -138 -139 -140 -141 -142 -143 -144 -145 -146 -147 0 
-16 1 6 7 8 9 10 11 12 13 14 15 17 18 39 40 57 58 80 111 112 -117 -119 -120 -121 -122 -123 -124 -125 -126 -127 -128 -129 -130 -131 -132 -133 -134 -135 -136 -137 -138 -139 -140 -141 -142 -143 -144 -145 -146 -147 0 
-8 1 6 7 9 10 11 12 13 14 15 16 17 18 39 40 57 58 80 111 112 -117 -119 -120 -121 -122 -123 -124 -125 -126 -127 -128 -129 -130 -131 -132 -133 -134 -135 -136 -137 -138 -139 -140 -141 -142 -143 -144 -145 -146 -147 0 
-6 1 7 8 9 10 11 12 13 14 15 16 17 18 39 40 57 58 80 111 112 -117 -119 -120 -121 -122 -123 -124 -125 -126 -127 -128 -129 -130 -131 -132 -133 -134 -135 -136 -137 -138 -139 -140 -141 -142 -143 -144 -145 -146 -147 0 
-7 1 6 8 9 10 11 12 13 14 15 16 17 18 39 40 57 58 80 111 112 -117 -119 -120 -121 -122 -123 -124 -125 -126 -127 -128 -129 -130 -131 -132 -133 -134 -135 -136 -137 -138 -139 -140 -141 -142 -143 -144 -145 -146 -147 0 
-11 1 6 7 8 9 10 12 13 14 15 16 17 18 39 40 57 58 80 111 114 -117 -119 -120 -121 -122 -123 -124 -125 -126 -127 -128 -129 -130 -131 -132 -133 -134 -135 -136 -137 -138 -139 -140 -141 -142 -143 -144 -145 -146 -147 0 
-11 1 6 7 8 9 10 12 13 14 15 16 17 18 39 40 57 58 80 111 112 -117 -119 -120 -121 -122 -123 -124 -125 -126 -127 -128 -129 -130 -131 -132 -133 -134 -135 -136 -137 -138 -139 -140 -141 -142 -143 -144 -145 -146 -147 0 
-13 1 6 7 8 9 10 11 12 14 15 16 17 18 39 40 57 58 80 111 112 -117 -119 -120 -121 -122 -123 -124 -125 -126 -127 -128 -129 -130 -131 -132 -133 -134 -135 -136 -137 -138 -139 -140 -141 -142 -143 -144 -145 -146 -147 0 
-12 1 6 7 8 9 10 11 13 14 15 16 17 18 39 40 57 58 80 111 112 -117 -119 -120 -121 -122 -123 -124 -125 -126 -127 -128 -129 -130 -131 -132 -133 -134 -135 -136 -137 -138 -139 -140 -141 -142 -143 -144 -145 -146 -147 0 
-10 1 6 7 8 9 11 12 13 14 15 16 17 18 39 40 57 58 80 111 114 -117 -119 -120 -121 -122 -123 -124 -125 -126 -127 -128 -129 -130 -131 -132 -133 -134 -135 -136 -137 -138 -139 -140 -141 -142 -143 -144 -145 -146 -147 0 
-13 1 6 7 8 9 10 11 12 14 15 16 17 18 39 40 57 58 80 111 114 -117 -119 -120 -121 -122 -123 -124 -125 -126 -127 -128 -129 -130 -131 -132 -133 -134 -135 -136 -137 -138 -139 -140 -141 -142 -143 -144 -145 -146 -147 0 
-6 1 7 8 9 10 11 12 13 14 15 16 17 18 39 40 57 58 80 111 114 -117 -119 -120 -121 -122 -123 -124 -125 -126 -127 -128 -129 -130 -131 -132 -133 -134 -135 -136 -137 -138 -139 -140 -141 -142 -143 -144 -145 -146 -147 0 
-12 1 6 7 8 9 10 11 13 14 15 16 17 18 39 40 57 58 80 111 114 -117 -119 -120 -121 -122 -123 -124 -125 -126 -127 -128 -129 -130 -131 -132 -133 -134 -135 -136 -137 -138 -139 -140 -141 -142 -143 -144 -145 -146 -147 0 
-9 1 6 7 8 10 11 12 13 14 15 16 17 18 39 40 57 58 80 111 112 -117 -119 -120 -121 -122 -123 -124 -125 -126 -127 -128 -129 -130 -131 -132 -133 -134 -135 -136 -137 -138 -139 -140 -141 -142 -143 -144 -145 -146 -147 0 
-14 1 6 7 8 9 10 11 12 13 15 16 17 18 39 40 57 58 80 111 112 -117 -119 -120 -121 -122 -123 -124 -125 -126 -127 -128 -129 -130 -131 -132 -133 -134 -135 -136 -137 -138 -139 -140 -141 -142 -143 -144 -145 -146 -147 0 
-9 1 6 7 8 10 11 12 13 14 15 16 17 18 39 40 57 58 80 111 114 -117 -119 -120 -121 -122 -123 -124 -125 -126 -127 -128 -129 -130 -131 -132 -133 -134 -135 -136 -137 -138 -139 -140 -141 -142 -143 -144 -145 -146 -147 0 
-8 1 6 7 9 10 11 12 13 14 15 16 17 18 39 40 57 58 80 111 114 -117 -119 -120 -121 -122 -123 -124 -125 -126 -127 -128 -129 -130 -131 -132 -133 -134 -135 -136 -137 -138 -139 -140 -141 -142 -143 -144 -145 -146 -147 0 
-16 1 6 7 8 9 10 11 12 13 14 15 17 18 39 40 57 58 80 111 114 -117 -119 -120 -121 -122 -123 -124 -125 -126 -127 -128 -129 -130 -131 -132 -133 -134 -135 -136 -137 -138 -139 -140 -141 -142 -143 -144 -145 -146 -147 0 
-14 1 6 7 8 9 10 11 12 13 15 16 17 18 39 40 57 58 80 111 114 -117 -119 -120 -121 -122 -123 -124 -125 -126 -127 -128 -129 -130 -131 -132 -133 -134 -135 -136 -137 -138 -139 -140 -141 -142 -143 -144 -145 -146 -147 0 
-18 1 6 7 8 9 10 11 12 13 14 15 16 17 39 40 57 58 80 111 115 -117 -119 -120 -121 -122 -123 -124 -125 -126 -127 -128 -129 -130 -131 -132 -133 -134 -135 -136 -137 -138 -139 -140 -141 -142 -143 -144 -145 -146 -147 0 
-7 1 6 8 9 10 11 12 13 14 15 16 17 18 39 40 57 58 80 111 114 -117 -119 -120 -121 -122 -123 -124 -125 -126 -127 -128 -129 -130 -131 -132 -133 -134 -135 -136 -137 -138 -139 -140 -141 -142 -143 -144 -145 -146 -147 0 
-19 27 37 42 43 48 50 54 86 88 90 94 95 96 99 104 106 107 108 109 117 -119 -120 -121 -122 -123 -124 -125 -126 -127 -128 -129 -130 -131 -132 -133 -134 -135 -136 -137 -138 -139 -140 -141 -142 -143 -144 -145 -146 -147 0 
-20 77 84 89 100 103 -21 4 25 38 41 45 47 51 52 59 60 61 62 63 64 68 87 91 93 97 98 101 105 110 117 -119 -120 -121 -122 -123 -124 -125 -126 -127 -128 -129 -130 -131 -132 -133 -134 -135 -136 -137 -138 -139 -140 -141 -142 -143 -144 -145 -146 -147 0 
-22 2 118 -117 -119 -120 -121 -122 -123 -124 -125 -126 -127 -128 -129 -130 -131 -132 -133 -134 -135 -136 -137 -138 -139 -140 -141 -142 -143 -144 -145 -146 -147 0 
-23 26 28 29 30 31 32 33 34 35 36 55 70 73 119 -117 -120 -121 -122 -123 -124 -125 -126 -127 -128 -129 -130 -131 -132 -133 -134 -135 -136 -137 -138 -139 -140 -141 -142 -143 -144 -145 -146 -147 0 
-21 4 25 38 41 45 47 51 52 59 60 61 62 63 64 68 87 91 93 97 98 101 105 110 -24 117 -119 -120 -121 -122 -123 -124 -125 -126 -127 -128 -129 -130 -131 -132 -133 -134 -135 -136 -137 -138 -139 -140 -141 -142 -143 -144 -145 -146 -147 0 
-25 4 21 38 41 45 47 51 52 59 60 61 62 63 64 68 87 91 93 97 98 101 105 110 120 -117 -119 -121 -122 -123 -124 -125 -126 -127 -128 -129 -130 -131 -132 -133 -134 -135 -136 -137 -138 -139 -140 -141 -142 -143 -144 -145 -146 -147 0 
-26 23 28 29 30 31 32 33 34 35 36 55 70 73 121 -117 -119 -120 -122 -123 -124 -125 -126 -127 -128 -129 -130 -131 -132 -133 -134 -135 -136 -137 -138 -139 -140 -141 -142 -143 -144 -145 -146 -147 0 
-27 19 37 42 43 48 50 54 86 88 90 94 95 96 99 104 106 107 108 109 122 -117 -119 -120 -121 -123 -124 -125 -126 -127 -128 -129 -130 -131 -132 -133 -134 -135 -136 -137 -138 -139 -140 -141 -142 -143 -144 -145 -146 -147 0 
-21 4 25 38 41 45 47 51 52 59 60 61 62 63 64 68 87 91 93 97 98 101 105 110 117 -119 -120 -121 -122 -123 -124 -125 -126 -127 -128 -129 -130 -131 -132 -133 -134 -135 -136 -137 -138 -139 -140 -141 -142 -143 -144 -145 -146 -147 0 
-28 23 26 29 30 31 32 33 34 35 36 55 70 73 117 -119 -120 -121 -122 -123 -124 -125 -126 -127 -128 -129 -130 -131 -132 -133 -134 -135 -136 -137 -138 -139 -140 -141 -142 -143 -144 -145 -146 -147 0 
-29 23 26 28 30 31 32 33 34 35 36 55 70 73 117 -119 -120 -121 -122 -123 -124 -125 -126 -127 -128 -129 -130 -131 -132 -133 -134 -135 -136 -137 -138 -139 -140 -141 -142 -143 -144 -145 -146 -147 0 
-30 23 26 28 29 31 32 33 34 35 36 55 70 73 117 -119 -120 -121 -122 -123 -124 -125 -126 -127 -128 -129 -130 -131 -132 -133 -134 -135 -136 -137 -138 -139 -140 -141 -142 -143 -144 -145 -146 -147 0 
-31 23 26 28 29 30 32 33 34 35 36 55 70 73 117 -119 -120 -121 -122 -123 -124 -125 -126 -127 -128 -129 -130 -131 -132 -133 -134 -135 -136 -137 -138 -139 -140 -141 -142 -143 -144 -145 -146 -147 0 
-32 23 26 28 29 30 31 33 34 35 36 55 70 73 117 -119 -120 -121 -122 -123 -124 -125 -126 -127 -128 -129 -130 -131 -132 -133 -134 -135 -136 -137 -138 -139 -140 -141 -142 -143 -144 -145 -146 -147 0 
-33 23 26 28 29 30 31 32 34 35 36 55 70 73 117 -119 -120 -121 -122 -123 -124 -125 -126 -127 -128 -129 -130 -131 -132 -133 -134 -135 -136 -137 -138 -139 -140 -141 -142 -143 -144 -145 -146 -147 0 
-34 23 26 28 29 30 31 32 33 35 36 55 70 73 117 -119 -120 -121 -122 -123 -124 -125 -126 -127 -128 -129 -130 -131 -132 -133 -134 -135 -136 -137 -138 -139 -140 -141 -142 -143 -144 -145 -146 -147 0 
-35 23 26 28 29 30 31 32 33 34 36 55 70 73 117 -119 -120 -121 -122 -123 -124 -125 -126 -127 -128 -129 -130 -131 -132 -133 -134 -135 -136 -137 -138 -139 -140 -141 -142 -143 -144 -145 -146 -147 0 
-36 23 26 28 29 30 31 32 33 34 35 55 70 73 117 -119 -120 -121 -122 -123 -124 -125 -126 -127 -128 -129 -130 -131 -132 -133 -134 -135 -136 -137 -138 -139 -140 -141 -142 -143 -144 -145 -146 -147 0 
-37 19 27 42 43 48 50 54 86 88 90 94 95 96 99 104 106 107 108 109 120 -117 -119 -121 -122 -123 -124 -125 -126 -127 -128 -129 -130 -131 -132 -133 -134 -135 -136 -137 -138 -139 -140 -141 -142 -143 -144 -145 -146 -147 0 
-38 4 21 25 41 45 47 51 52 59 60 61 62 63 64 68 87 91 93 97 98 101 105 110 115 -117 -119 -120 -121 -122 -123 -124 -125 -126 -127 -128 -129 -130 -131 -132 -133 -134 -135 -136 -137 -138 -139 -140 -141 -142 -143 -144 -145 -146 -147 0 
-39 1 6 7 8 9 10 11 12 13 14 15 16 17 18 40 57 58 80 111 113 -117 -119 -120 -121 -122 -123 -124 -125 -126 -127 -128 -129 -130 -131 -132 -133 -134 -135 -136 -137 -138 -139 -140 -141 -142 -143 -144 -145 -146 -147 0 
-40 1 6 7 8 9 10 11 12 13 14 15 16 17 18 39 57 58 80 111 116 -117 -119 -120 -121 -122 -123 -124 -125 -126 -127 -128 -129 -130 -131 -132 -133 -134 -135 -136 -137 -138 -139 -140 -141 -142 -143 -144 -145 -146 -147 0 
-41 4 21 25 38 45 47 51 52 59 60 61 62 63 64 68 87 91 93 97 98 101 105 110 115 -117 -119 -120 -121 -122 -123 -124 -125 -126 -127 -128 -129 -130 -131 -132 -133 -134 -135 -136 -137 -138 -139 -140 -141 -142 -143 -144 -145 -146 -147 0 
-5 49 72 118 -117 -119 -120 -121 -122 -123 -124 -125 -126 -127 -128 -129 -130 -131 -132 -133 -134 -135 -136 -137 -138 -139 -140 -141 -142 -143 -144 -145 -146 -147 0 
-42 19 27 37 43 48 50 54 86 88 90 94 95 96 99 104 106 107 108 109 123 -117 -119 -120 -121 -122 -124 -125 -126 -127 -128 -129 -130 -131 -132 -133 -134 -135 -136 -137 -138 -139 -140 -141 -142 -143 -144 -145 -146 -147 0 
-43 19 27 37 42 48 50 54 86 88 90 94 95 96 99 104 106 107 108 109 -44 124 -117 -119 -120 -121 -122 -123 -125 -126 -127 -128 -129 -130 -131 -132 -133 -134 -135 -136 -137 -138 -139 -140 -141 -142 -143 -144 -145 -146 -147 0 
-45 4 21 25 38 41 47 51 52 59 60 61 62 63 64 68 87 91 93 97 98 101 105 110 123 -117 -119 -120 -121 -122 -124 -125 -126 -127 -128 -129 -130 -131 -132 -133 -134 -135 -136 -137 -138 -139 -140 -141 -142 -143 -144 -145 -146 -147 0 
-25 4 21 38 41 45 47 51 52 59 60 61 62 63 64 68 87 91 93 97 98 101 105 110 -46 120 -117 -119 -121 -122 -123 -124 -125 -126 -127 -128 -129 -130 -131 -132 -133 -134 -135 -136 -137 -138 -139 -140 -141 -142 -143 -144 -145 -146 -147 0 
-47 4 21 25 38 41 45 51 52 59 60 61 62 63 64 68 87 91 93 97 98 101 105 110 125 -117 -119 -120 -121 -122 -123 -124 -126 -127 -128 -129 -130 -131 -132 -133 -134 -135 -136 -137 -138 -139 -140 -141 -142 -143 -144 -145 -146 -147 0 
-48 19 27 37 42 43 50 54 86 88 90 94 95 96 99 104 106 107 108 109 126 -117 -119 -120 -121 -122 -123 -124 -125 -127 -128 -129 -130 -131 -132 -133 -134 -135 -136 -137 -138 -139 -140 -141 -142 -143 -144 -145 -146 -147 0 
-49 5 72 -50 19 27 37 42 43 48 54 86 88 90 94 95 96 99 104 106 107 108 109 127 -117 -119 -120 -121 -122 -123 -124 -125 -126 -128 -129 -130 -131 -132 -133 -134 -135 -136 -137 -138 -139 -140 -141 -142 -143 -144 -145 -146 -147 0 
-51 4 21 25 38 41 45 47 52 59 60 61 62 63 64 68 87 91 93 97 98 101 105 110 127 -117 -119 -120 -121 -122 -123 -124 -125 -126 -128 -129 -130 -131 -132 -133 -134 -135 -136 -137 -138 -139 -140 -141 -142 -143 -144 -145 -146 -147 0 
-52 4 21 25 38 41 45 47 51 59 60 61 62 63 64 68 87 91 93 97 98 101 105 110 128 -117 -119 -120 -121 -122 -123 -124 -125 -126 -127 -129 -130 -131 -132 -133 -134 -135 -136 -137 -138 -139 -140 -141 -142 -143 -144 -145 -146 -147 0 
-51 4 21 25 38 41 45 47 52 59 60 61 62 63 64 68 87 91 93 97 98 101 105 110 -53 127 -117 -119 -120 -121 -122 -123 -124 -125 -126 -128 -129 -130 -131 -132 -133 -134 -135 -136 -137 -138 -139 -140 -141 -142 -143 -144 -145 -146 -147 0 
-54 19 27 37 42 43 48 50 86 88 90 94 95 96 99 104 106 107 108 109 129 -117 -119 -120 -121 -122 -123 -124 -125 -126 -127 -128 -130 -131 -132 -133 -134 -135 -136 -137 -138 -139 -140 -141 -142 -143 -144 -145 -146 -147 0 
-5 49 72 115 -117 -119 -120 -121 -122 -123 -124 -125 -126 -127 -128 -129 -130 -131 -132 -133 -134 -135 -136 -137 -138 -139 -140 -141 -142 -143 -144 -145 -146 -147 0 
-55 23 26 28 29 30 31 32 33 34 35 36 70 73 130 -117 -119 -120 -121 -122 -123 -124 -125 -126 -127 -128 -129 -131 -132 -133 -134 -135 -136 -137 -138 -139 -140 -141 -142 -143 -144 -145 -146 -147 0 
-5 49 72 113 -117 -119 -120 -121 -122 -123 -124 -125 -126 -127 -128 -129 -130 -131 -132 -133 -134 -135 -136 -137 -138 -139 -140 -141 -142 -143 -144 -145 -146 -147 0 
-56 92 112 -117 -119 -120 -121 -122 -123 -124 -125 -126 -127 -128 -129 -130 -131 -132 -133 -134 -135 -136 -137 -138 -139 -140 -141 -142 -143 -144 -145 -146 -147 0 
-57 1 6 7 8 9 10 11 12 13 14 15 16 17 18 39 40 58 80 111 115 -117 -119 -120 -121 -122 -123 -124 -125 -126 -127 -128 -129 -130 -131 -132 -133 -134 -135 -136 -137 -138 -139 -140 -141 -142 -143 -144 -145 -146 -147 0 
-57 1 6 7 8 9 10 11 12 13 14 15 16 17 18 39 40 58 80 111 112 -117 -119 -120 -121 -122 -123 -124 -125 -126 -127 -128 -129 -130 -131 -132 -133 -134 -135 -136 -137 -138 -139 -140 -141 -142 -143 -144 -145 -146 -147 0 
-57 1 6 7 8 9 10 11 12 13 14 15 16 17 18 39 40 58 80 111 113 -117 -119 -120 -121 -122 -123 -124 -125 -126 -127 -128 -129 -130 -131 -132 -133 -134 -135 -136 -137 -138 -139 -140 -141 -142 -143 -144 -145 -146 -147 0 
-58 1 6 7 8 9 10 11 12 13 14 15 16 17 18 39 40 57 80 111 113 -117 -119 -120 -121 -122 -123 -124 -125 -126 -127 -128 -129 -130 -131 -132 -133 -134 -135 -136 -137 -138 -139 -140 -141 -142 -143 -144 -145 -146 -147 0 
-57 1 6 7 8 9 10 11 12 13 14 15 16 17 18 39 40 58 80 111 114 -117 -119 -120 -121 -122 -123 -124 -125 -126 -127 -128 -129 -130 -131 -132 -133 -134 -135 -136 -137 -138 -139 -140 -141 -142 -143 -144 -145 -146 -147 0 
-59 4 21 25 38 41 45 47 51 52 60 61 62 63 64 68 87 91 93 97 98 101 105 110 113 -117 -119 -120 -121 -122 -123 -124 -125 -126 -127 -128 -129 -130 -131 -132 -133 -134 -135 -136 -137 -138 -139 -140 -141 -142 -143 -144 -145 -146 -147 0 
-60 4 21 25 38 41 45 47 51 52 59 61 62 63 64 68 87 91 93 97 98 101 105 110 113 -117 -119 -120 -121 -122 -123 -124 -125 -126 -127 -128 -129 -130 -131 -132 -133 -134 -135 -136 -137 -138 -139 -140 -141 -142 -143 -144 -145 -146 -147 0 
-61 4 21 25 38 41 45 47 51 52 59 60 62 63 64 68 87 91 93 97 98 101 105 110 115 -117 -119 -120 -121 -122 -123 -124 -125 -126 -127 -128 -129 -130 -131 -132 -133 -134 -135 -136 -137 -138 -139 -140 -141 -142 -143 -144 -145 -146 -147 0 
-62 4 21 25 38 41 45 47 51 52 59 60 61 63 64 68 87 91 93 97 98 101 105 110 116 -117 -119 -120 -121 -122 -123 -124 -125 -126 -127 -128 -129 -130 -131 -132 -133 -134 -135 -136 -137 -138 -139 -140 -141 -142 -143 -144 -145 -146 -147 0 
-63 4 21 25 38 41 45 47 51 52 59 60 61 62 64 68 87 91 93 97 98 101 105 110 113 -117 -119 -120 -121 -122 -123 -124 -125 -126 -127 -128 -129 -130 -131 -132 -133 -134 -135 -136 -137 -138 -139 -140 -141 -142 -143 -144 -145 -146 -147 0 
-64 4 21 25 38 41 45 47 51 52 59 60 61 62 63 68 87 91 93 97 98 101 105 110 115 -117 -119 -120 -121 -122 -123 -124 -125 -126 -127 -128 -129 -130 -131 -132 -133 -134 -135 -136 -137 -138 -139 -140 -141 -142 -143 -144 -145 -146 -147 0 
-2 22 118 -117 -119 -120 -121 -122 -123 -124 -125 -126 -127 -128 -129 -130 -131 -132 -133 -134 -135 -136 -137 -138 -139 -140 -141 -142 -143 -144 -145 -146 -147 0 
-65 115 -117 -119 -120 -121 -122 -123 -124 -125 -126 -127 -128 -129 -130 -131 -132 -133 -134 -135 -136 -137 -138 -139 -140 -141 -142 -143 -144 -145 -146 -147 0 
-66 -67 131 -117 -119 -120 -121 -122 -123 -124 -125 -126 -127 -128 -129 -130 -132 -133 -134 -135 -136 -137 -138 -139 -140 -141 -142 -143 -144 -145 -146 -147 0 
-68 4 21 25 38 41 45 47 51 52 59 60 61 62 63 64 87 91 93 97 98 101 105 110 130 -117 -119 -120 -121 -122 -123 -124 -125 -126 -127 -128 -129 -131 -132 -133 -134 -135 -136 -137 -138 -139 -140 -141 -142 -143 -144 -145 -146 -147 0 
-69 123 -117 -119 -120 -121 -122 -124 -125 -126 -127 -128 -129 -130 -131 -132 -133 -134 -135 -136 -137 -138 -139 -140 -141 -142 -143 -144 -145 -146 -147 0 
-70 23 26 28 29 30 31 32 33 34 35 36 55 73 123 -117 -119 -120 -121 -122 -124 -125 -126 -127 -128 -129 -130 -131 -132 -133 -134 -135 -136 -137 -138 -139 -140 -141 -142 -143 -144 -145 -146 -147 0 
-71 132 -117 -119 -120 -121 -122 -123 -124 -125 -126 -127 -128 -129 -130 -131 -133 -134 -135 -136 -137 -138 -139 -140 -141 -142 -143 -144 -145 -146 -147 0 
-72 5 49 132 -117 -119 -120 -121 -122 -123 -124 -125 -126 -127 -128 -129 -130 -131 -133 -134 -135 -136 -137 -138 -139 -140 -141 -142 -143 -144 -145 -146 -147 0 
-56 92 118 -117 -119 -120 -121 -122 -123 -124 -125 -126 -127 -128 -129 -130 -131 -132 -133 -134 -135 -136 -137 -138 -139 -140 -141 -142 -143 -144 -145 -146 -147 0 
-73 23 26 28 29 30 31 32 33 34 35 36 55 70 117 -119 -120 -121 -122 -123 -124 -125 -126 -127 -128 -129 -130 -131 -132 -133 -134 -135 -136 -137 -138 -139 -140 -141 -142 -143 -144 -145 -146 -147 0 
-74 132 -117 -119 -120 -121 -122 -123 -124 -125 -126 -127 -128 -129 -130 -131 -133 -134 -135 -136 -137 -138 -139 -140 -141 -142 -143 -144 -145 -146 -147 0 
-19 27 37 42 43 48 50 54 86 88 90 94 95 96 99 104 106 107 108 109 -20 77 84 89 100 103 -21 4 25 38 41 45 47 51 52 59 60 61 62 63 64 68 87 91 93 97 98 101 105 110 117 -119 -120 -121 -122 -123 -124 -125 -126 -127 -128 -129 -130 -131 -132 -133 -134 -135 -136 -137 -138 -139 -140 -141 -142 -143 -144 -145 -146 -147 0 
-75 -21 4 25 38 41 45 47 51 52 59 60 61 62 63 64 68 87 91 93 97 98 101 105 110 117 -119 -120 -121 -122 -123 -124 -125 -126 -127 -128 -129 -130 -131 -132 -133 -134 -135 -136 -137 -138 -139 -140 -141 -142 -143 -144 -145 -146 -147 0 
-21 4 25 38 41 45 47 51 52 59 60 61 62 63 64 68 87 91 93 97 98 101 105 110 -76 117 -119 -120 -121 -122 -123 -124 -125 -126 -127 -128 -129 -130 -131 -132 -133 -134 -135 -136 -137 -138 -139 -140 -141 -142 -143 -144 -145 -146 -147 0 
-77 20 84 89 100 103 133 -117 -119 -120 -121 -122 -123 -124 -125 -126 -127 -128 -129 -130 -131 -132 -134 -135 -136 -137 -138 -139 -140 -141 -142 -143 -144 -145 -146 -147 0 
-21 4 25 38 41 45 47 51 52 59 60 61 62 63 64 68 87 91 93 97 98 101 105 110 -78 117 -119 -120 -121 -122 -123 -124 -125 -126 -127 -128 -129 -130 -131 -132 -133 -134 -135 -136 -137 -138 -139 -140 -141 -142 -143 -144 -145 -146 -147 0 
-21 4 25 38 41 45 47 51 52 59 60 61 62 63 64 68 87 91 93 97 98 101 105 110 -79 117 -119 -120 -121 -122 -123 -124 -125 -126 -127 -128 -129 -130 -131 -132 -133 -134 -135 -136 -137 -138 -139 -140 -141 -142 -143 -144 -145 -146 -147 0 
-80 1 6 7 8 9 10 11 12 13 14 15 16 17 18 39 40 57 58 111 113 -117 -119 -120 -121 -122 -123 -124 -125 -126 -127 -128 -129 -130 -131 -132 -133 -134 -135 -136 -137 -138 -139 -140 -141 -142 -143 -144 -145 -146 -147 0 
-14 1 6 7 8 9 10 11 12 13 15 16 17 18 39 40 57 58 80 111 115 -117 -119 -120 -121 -122 -123 -124 -125 -126 -127 -128 -129 -130 -131 -132 -133 -134 -135 -136 -137 -138 -139 -140 -141 -142 -143 -144 -145 -146 -147 0 
-15 1 6 7 8 9 10 11 12 13 14 16 17 18 39 40 57 58 80 111 113 -117 -119 -120 -121 -122 -123 -124 -125 -126 -127 -128 -129 -130 -131 -132 -133 -134 -135 -136 -137 -138 -139 -140 -141 -142 -143 -144 -145 -146 -147 0 
-19 27 37 42 43 48 50 54 86 88 90 94 95 96 99 104 106 107 108 109 -20 77 84 89 100 103 117 -119 -120 -121 -122 -123 -124 -125 -126 -127 -128 -129 -130 -131 -132 -133 -134 -135 -136 -137 -138 -139 -140 -141 -142 -143 -144 -145 -146 -147 0 
-19 27 37 42 43 48 50 54 86 88 90 94 95 96 99 104 106 107 108 109 -81 117 -119 -120 -121 -122 -123 -124 -125 -126 -127 -128 -129 -130 -131 -132 -133 -134 -135 -136 -137 -138 -139 -140 -141 -142 -143 -144 -145 -146 -147 0 
-82 112 -117 -119 -120 -121 -122 -123 -124 -125 -126 -127 -128 -129 -130 -131 -132 -133 -134 -135 -136 -137 -138 -139 -140 -141 -142 -143 -144 -145 -146 -147 0 
-83 114 -117 -119 -120 -121 -122 -123 -124 -125 -126 -127 -128 -129 -130 -131 -132 -133 -134 -135 -136 -137 -138 -139 -140 -141 -142 -143 -144 -145 -146 -147 0 
-5 49 72 114 -117 -119 -120 -121 -122 -123 -124 -125 -126 -127 -128 -129 -130 -131 -132 -133 -134 -135 -136 -137 -138 -139 -140 -141 -142 -143 -144 -145 -146 -147 0 
-84 20 77 89 100 103 131 -117 -119 -120 -121 -122 -123 -124 -125 -126 -127 -128 -129 -130 -132 -133 -134 -135 -136 -137 -138 -139 -140 -141 -142 -143 -144 -145 -146 -147 0 
-85 134 -117 -119 -120 -121 -122 -123 -124 -125 -126 -127 -128 -129 -130 -131 -132 -133 -135 -136 -137 -138 -139 -140 -141 -142 -143 -144 -145 -146 -147 0 
-61 4 21 25 38 41 45 47 51 52 59 60 62 63 64 68 87 91 93 97 98 101 105 110 135 -117 -119 -120 -121 -122 -123 -124 -125 -126 -127 -128 -129 -130 -131 -132 -133 -134 -136 -137 -138 -139 -140 -141 -142 -143 -144 -145 -146 -147 0 
-86 19 27 37 42 43 48 50 54 88 90 94 95 96 99 104 106 107 108 109 136 -117 -119 -120 -121 -122 -123 -124 -125 -126 -127 -128 -129 -130 -131 -132 -133 -134 -135 -137 -138 -139 -140 -141 -142 -143 -144 -145 -146 -147 0 
-87 4 21 25 38 41 45 47 51 52 59 60 61 62 63 64 68 91 93 97 98 101 105 110 134 -117 -119 -120 -121 -122 -123 -124 -125 -126 -127 -128 -129 -130 -131 -132 -133 -135 -136 -137 -138 -139 -140 -141 -142 -143 -144 -145 -146 -147 0 
-72 5 49 134 -117 -119 -120 -121 -122 -123 -124 -125 -126 -127 -128 -129 -130 -131 -132 -133 -135 -136 -137 -138 -139 -140 -141 -142 -143 -144 -145 -146 -147 0 
-88 19 27 37 42 43 48 50 54 86 90 94 95 96 99 104 106 107 108 109 -89 20 77 84 100 103 137 -117 -119 -120 -121 -122 -123 -124 -125 -126 -127 -128 -129 -130 -131 -132 -133 -134 -135 -136 -138 -139 -140 -141 -142 -143 -144 -145 -146 -147 0 
-90 19 27 37 42 43 48 50 54 86 88 94 95 96 99 104 106 107 108 109 130 -117 -119 -120 -121 -122 -123 -124 -125 -126 -127 -128 -129 -131 -132 -133 -134 -135 -136 -137 -138 -139 -140 -141 -142 -143 -144 -145 -146 -147 0 
-20 77 84 89 100 103 -19 27 37 42 43 48 50 54 86 88 90 94 95 96 99 104 106 107 108 109 117 -119 -120 -121 -122 -123 -124 -125 -126 -127 -128 -129 -130 -131 -132 -133 -134 -135 -136 -137 -138 -139 -140 -141 -142 -143 -144 -145 -146 -147 0 
-91 4 21 25 38 41 45 47 51 52 59 60 61 62 63 64 68 87 93 97 98 101 105 110 137 -117 -119 -120 -121 -122 -123 -124 -125 -126 -127 -128 -129 -130 -131 -132 -133 -134 -135 -136 -138 -139 -140 -141 -142 -143 -144 -145 -146 -147 0 
-92 56 -19 27 37 42 43 48 50 54 86 88 90 94 95 96 99 104 106 107 108 109 117 -119 -120 -121 -122 -123 -124 -125 -126 -127 -128 -129 -130 -131 -132 -133 -134 -135 -136 -137 -138 -139 -140 -141 -142 -143 -144 -145 -146 -147 0 
-75 -91 4 21 25 38 41 45 47 51 52 59 60 61 62 63 64 68 87 93 97 98 101 105 110 137 -117 -119 -120 -121 -122 -123 -124 -125 -126 -127 -128 -129 -130 -131 -132 -133 -134 -135 -136 -138 -139 -140 -141 -142 -143 -144 -145 -146 -147 0 
-43 19 27 37 42 48 50 54 86 88 90 94 95 96 99 104 106 107 108 109 124 -117 -119 -120 -121 -122 -123 -125 -126 -127 -128 -129 -130 -131 -132 -133 -134 -135 -136 -137 -138 -139 -140 -141 -142 -143 -144 -145 -146 -147 0 
-88 19 27 37 42 43 48 50 54 86 90 94 95 96 99 104 106 107 108 109 137 -117 -119 -120 -121 -122 -123 -124 -125 -126 -127 -128 -129 -130 -131 -132 -133 -134 -135 -136 -138 -139 -140 -141 -142 -143 -144 -145 -146 -147 0 
-93 4 21 25 38 41 45 47 51 52 59 60 61 62 63 64 68 87 91 97 98 101 105 110 138 -117 -119 -120 -121 -122 -123 -124 -125 -126 -127 -128 -129 -130 -131 -132 -133 -134 -135 -136 -137 -139 -140 -141 -142 -143 -144 -145 -146 -147 0 
-94 19 27 37 42 43 48 50 54 86 88 90 95 96 99 104 106 107 108 109 139 -117 -119 -120 -121 -122 -123 -124 -125 -126 -127 -128 -129 -130 -131 -132 -133 -134 -135 -136 -137 -138 -140 -141 -142 -143 -144 -145 -146 -147 0 
-95 19 27 37 42 43 48 50 54 86 88 90 94 96 99 104 106 107 108 109 140 -117 -119 -120 -121 -122 -123 -124 -125 -126 -127 -128 -129 -130 -131 -132 -133 -134 -135 -136 -137 -138 -139 -141 -142 -143 -144 -145 -146 -147 0 
-96 19 27 37 42 43 48 50 54 86 88 90 94 95 99 104 106 107 108 109 141 -117 -119 -120 -121 -122 -123 -124 -125 -126 -127 -128 -129 -130 -131 -132 -133 -134 -135 -136 -137 -138 -139 -140 -142 -143 -144 -145 -146 -147 0 
-97 4 21 25 38 41 45 47 51 52 59 60 61 62 63 64 68 87 91 93 98 101 105 110 142 -117 -119 -120 -121 -122 -123 -124 -125 -126 -127 -128 -129 -130 -131 -132 -133 -134 -135 -136 -137 -138 -139 -140 -141 -143 -144 -145 -146 -147 0 
-98 4 21 25 38 41 45 47 51 52 59 60 61 62 63 64 68 87 91 93 97 101 105 110 141 -117 -119 -120 -121 -122 -123 -124 -125 -126 -127 -128 -129 -130 -131 -132 -133 -134 -135 -136 -137 -138 -139 -140 -142 -143 -144 -145 -146 -147 0 
-99 19 27 37 42 43 48 50 54 86 88 90 94 95 96 104 106 107 108 109 -100 20 77 84 89 103 143 -117 -119 -120 -121 -122 -123 -124 -125 -126 -127 -128 -129 -130 -131 -132 -133 -134 -135 -136 -137 -138 -139 -140 -141 -142 -144 -145 -146 -147 0 
-101 4 21 25 38 41 45 47 51 52 59 60 61 62 63 64 68 87 91 93 97 98 105 110 119 -117 -120 -121 -122 -123 -124 -125 -126 -127 -128 -129 -130 -131 -132 -133 -134 -135 -136 -137 -138 -139 -140 -141 -142 -143 -144 -145 -146 -147 0 
-102 -103 20 77 84 89 100 130 -117 -119 -120 -121 -122 -123 -124 -125 -126 -127 -128 -129 -131 -132 -133 -134 -135 -136 -137 -138 -139 -140 -141 -142 -143 -144 -145 -146 -147 0 
-103 20 77 84 89 100 130 -117 -119 -120 -121 -122 -123 -124 -125 -126 -127 -128 -129 -131 -132 -133 -134 -135 -136 -137 -138 -139 -140 -141 -142 -143 -144 -145 -146 -147 0 
-24 -90 19 27 37 42 43 48 50 54 86 88 94 95 96 99 104 106 107 108 109 130 -117 -119 -120 -121 -122 -123 -124 -125 -126 -127 -128 -129 -131 -132 -133 -134 -135 -136 -137 -138 -139 -140 -141 -142 -143 -144 -145 -146 -147 0 
-104 19 27 37 42 43 48 50 54 86 88 90 94 95 96 99 106 107 108 109 144 -117 -119 -120 -121 -122 -123 -124 -125 -126 -127 -128 -129 -130 -131 -132 -133 -134 -135 -136 -137 -138 -139 -140 -141 -142 -143 -145 -146 -147 0 
-105 4 21 25 38 41 45 47 51 52 59 60 61 62 63 64 68 87 91 93 97 98 101 110 139 -117 -119 -120 -121 -122 -123 -124 -125 -126 -127 -128 -129 -130 -131 -132 -133 -134 -135 -136 -137 -138 -140 -141 -142 -143 -144 -145 -146 -147 0 
-56 92 113 -117 -119 -120 -121 -122 -123 -124 -125 -126 -127 -128 -129 -130 -131 -132 -133 -134 -135 -136 -137 -138 -139 -140 -141 -142 -143 -144 -145 -146 -147 0 
-106 19 27 37 42 43 48 50 54 86 88 90 94 95 96 99 104 107 108 109 135 -117 -119 -120 -121 -122 -123 -124 -125 -126 -127 -128 -129 -130 -131 -132 -133 -134 -136 -137 -138 -139 -140 -141 -142 -143 -144 -145 -146 -147 0 
-107 19 27 37 42 43 48 50 54 86 88 90 94 95 96 99 104 106 108 109 132 -117 -119 -120 -121 -122 -123 -124 -125 -126 -127 -128 -129 -130 -131 -133 -134 -135 -136 -137 -138 -139 -140 -141 -142 -143 -144 -145 -146 -147 0 
-108 19 27 37 42 43 48 50 54 86 88 90 94 95 96 99 104 106 107 109 145 -117 -119 -120 -121 -122 -123 -124 -125 -126 -127 -128 -129 -130 -131 -132 -133 -134 -135 -136 -137 -138 -139 -140 -141 -142 -143 -144 -146 -147 0 
-109 19 27 37 42 43 48 50 54 86 88 90 94 95 96 99 104 106 107 108 146 -117 -119 -120 -121 -122 -123 -124 -125 -126 -127 -128 -129 -130 -131 -132 -133 -134 -135 -136 -137 -138 -139 -140 -141 -142 -143 -144 -145 -147 0 
-110 4 21 25 38 41 45 47 51 52 59 60 61 62 63 64 68 87 91 93 97 98 101 105 147 -117 -119 -120 -121 -122 -123 -124 -125 -126 -127 -128 -129 -130 -131 -132 -133 -134 -135 -136 -137 -138 -139 -140 -141 -142 -143 -144 -145 -146 0 
-111 1 6 7 8 9 10 11 12 13 14 15 16 17 18 39 40 57 58 80 113 -117 -119 -120 -121 -122 -123 -124 -125 -126 -127 -128 -129 -130 -131 -132 -133 -134 -135 -136 -137 -138 -139 -140 -141 -142 -143 -144 -145 -146 -147 0 
